<number of tasks>
50

<cycle time>
1000

<order strength>
0.197


<task times>
1 125
2 350
3 44
4 156
5 127
6 217
7 46
8 145
9 30
10 85
11 96
12 170
13 197
14 171
15 164
16 85
17 323
18 254
19 194
20 79
21 135
22 149
23 119
24 141
25 125
26 263
27 149
28 66
29 144
30 51
31 132
32 75
33 250
34 88
35 140
36 231
37 242
38 39
39 103
40 192
41 210
42 91
43 102
44 179
45 116
46 263
47 179
48 307
49 95
50 71

<precedence relations>
1,5
2,6
2,7
3,9
3,10
3,32
4,8
4,17
4,46
5,12
6,13
7,11
7,17
7,18
7,19
7,20
8,14
8,18
8,32
9,28
10,15
10,16
10,20
11,21
12,22
13,26
14,25
15,23
16,24
16,27
18,42
19,28
21,31
22,32
23,29
24,30
25,33
26,33
26,50
27,47
28,34
28,35
29,36
30,37
31,38
32,39
32,40
34,41
34,48
34,49
35,42
36,43
37,44
38,46
39,45
40,47
43,48
44,49
45,48
46,48
47,50

<end>
